
******************************************************************************
This program contains Ipopt, a library for large-scale nonlinear optimization.
 Ipopt is released as open source code under the Eclipse Public License (EPL).
         For more information visit http://projects.coin-or.org/Ipopt
******************************************************************************

This is Ipopt version 3.12.6, running with linear solver ma57.

Number of nonzeros in equality constraint Jacobian...:        0
Number of nonzeros in inequality constraint Jacobian.:        0
Number of nonzeros in Lagrangian Hessian.............:     5050

Total number of variables............................:      100
                     variables with only lower bounds:        0
                variables with lower and upper bounds:        0
                     variables with only upper bounds:        0
Total number of equality constraints.................:        0
Total number of inequality constraints...............:        0
        inequality constraints with only lower bounds:        0
   inequality constraints with lower and upper bounds:        0
        inequality constraints with only upper bounds:        0

iter    objective    inf_pr   inf_du lg(mu)  ||d||  lg(rg) alpha_du alpha_pr  ls
   0  1.1032186e+12 0.00e+00 1.00e+02  -1.0 0.00e+00    -  0.00e+00 0.00e+00   0
   1  1.0921940e+12 0.00e+00 9.95e+01  -1.0 9.95e-01   2.0 1.00e+00 1.00e+00f  1
   2  1.0599386e+12 0.00e+00 9.80e+01  -1.0 2.94e+00   1.5 1.00e+00 1.00e+00f  1
   3  9.7007610e+11 0.00e+00 9.37e+01  -1.0 8.43e+00   1.0 1.00e+00 1.00e+00f  1
   4  7.5209393e+11 0.00e+00 8.24e+01  -1.0 2.22e+01   0.6 1.00e+00 1.00e+00f  1
   5  6.8108915e+11 0.00e+00 7.83e+01  -1.0 7.93e+00   1.0 1.00e+00 1.00e+00f  1
   6  5.1292421e+11 0.00e+00 6.79e+01  -1.0 2.06e+01   0.5 1.00e+00 1.00e+00f  1
   7  4.5896616e+11 0.00e+00 6.42e+01  -1.0 7.31e+00   0.9 1.00e+00 1.00e+00f  1
   8  3.3432870e+11 0.00e+00 5.47e+01  -1.0 1.87e+01   0.5 1.00e+00 1.00e+00f  1
   9  2.9512255e+11 0.00e+00 5.13e+01  -1.0 6.57e+00   0.9 1.00e+00 1.00e+00f  1
iter    objective    inf_pr   inf_du lg(mu)  ||d||  lg(rg) alpha_du alpha_pr  ls
  10  2.0698093e+11 0.00e+00 4.30e+01  -1.0 1.65e+01   0.4 1.00e+00 1.00e+00f  1
  11  1.8048571e+11 0.00e+00 4.02e+01  -1.0 5.73e+00   0.8 1.00e+00 1.00e+00f  1
  12  1.2103024e+11 0.00e+00 3.31e+01  -1.0 1.43e+01   0.4 1.00e+00 1.00e+00f  1
  13  4.4519965e+10 0.00e+00 2.01e+01  -1.0 2.63e+01  -0.1 1.00e+00 1.00e+00f  1
  14  5.1539745e+09 0.00e+00 6.87e+00  -1.0 2.66e+01  -0.6 1.00e+00 1.00e+00f  1
  15  2.8091880e+06 0.00e+00 3.29e-01  -1.0 1.39e+01    -  1.00e+00 1.00e+00f  1
  16  6.3355671e+01 0.00e+00 1.63e-03  -1.7 6.65e-01    -  1.00e+00 1.00e+00f  1
  17  2.4222198e-08 0.00e+00 3.03e-08  -3.8 3.24e-03    -  1.00e+00 1.00e+00f  1
  18  1.2763356e-21 0.00e+00 5.53e-15  -8.6 6.05e-08    -  1.00e+00 1.00e+00f  1

Number of Iterations....: 18

                                   (scaled)                 (unscaled)
Objective...............:   1.6316572201906004e-28    1.2763356462014870e-21
Dual infeasibility......:   5.5314440324790181e-15    4.3268764457750282e-08
Constraint violation....:   0.0000000000000000e+00    0.0000000000000000e+00
Complementarity.........:   0.0000000000000000e+00    0.0000000000000000e+00
Overall NLP error.......:   5.5314440324790181e-15    4.3268764457750282e-08


Number of objective function evaluations             = 19
Number of objective gradient evaluations             = 19
Number of equality constraint evaluations            = 0
Number of inequality constraint evaluations          = 0
Number of equality constraint Jacobian evaluations   = 0
Number of inequality constraint Jacobian evaluations = 0
Number of Lagrangian Hessian evaluations             = 18
Total CPU secs in IPOPT (w/o function evaluations)   =      0.037
Total CPU secs in NLP function evaluations           =      0.270

EXIT: Optimal Solution Found.

 ** SUBROUTINE CUTEST_csetup: Warning. The problem has no general constraints. 
 ** Other tools may be preferable ** 

************************ CUTEst statistics ************************


 Package used            :  IPOPT
 Problem                 :  MANCINO   
 # variables             =             100
 # constraints           =               0
 # objective functions   =        0.3900000E+02
 # objective gradients   =        0.2000000E+02
 # objective Hessians    =        0.1900000E+02
 # Hessian-vector prdct  =        0.0000000E+00
 # constraints functions =        0.0000000E+00
 # constraints gradients =        0.0000000E+00
 # constraints Hessians  =        0.0000000E+00
 Exit code               =               0
 Final f                 =   0.1276336E-20
 Set up time             =            0.08 seconds
 Solve time              =            0.48 seconds


******************************************************************

System Time =       0.2860000134 s.
